
Gurobi 7.0.2 (win64, Python) logging started 10/22/17 11:10:24

Optimize a model with 2 rows, 3 columns and 5 nonzeros
Variable types: 0 continuous, 3 integer (3 binary)
Coefficient statistics:
  Matrix range     [1e+00, 3e+00]
  Objective range  [1e+00, 2e+00]
  Bounds range     [1e+00, 1e+00]
  RHS range        [1e+00, 4e+00]
Presolve removed 2 rows and 3 columns
Presolve time: 0.00s
Presolve: All rows and columns removed

Explored 0 nodes (0 simplex iterations) in 0.06 seconds
Thread count was 1 (of 4 available processors)

Solution count 1: 3 
Pool objective bound 3

Optimal solution found (tolerance 1.00e-04)
Best objective 3.000000000000e+00, best bound 3.000000000000e+00, gap 0.0000%
Optimize a model with 2 rows, 3 columns and 5 nonzeros
Variable types: 0 continuous, 3 integer (3 binary)
Coefficient statistics:
  Matrix range     [1e+00, 3e+00]
  Objective range  [1e+00, 2e+00]
  Bounds range     [1e+00, 1e+00]
  RHS range        [1e+00, 4e+00]
Presolve removed 2 rows and 3 columns
Presolve time: 0.00s
Presolve: All rows and columns removed

Explored 0 nodes (0 simplex iterations) in 0.03 seconds
Thread count was 1 (of 4 available processors)

Solution count 1: 3 
Pool objective bound 3

Optimal solution found (tolerance 1.00e-04)
Best objective 3.000000000000e+00, best bound 3.000000000000e+00, gap 0.0000%
Optimize a model with 2 rows, 3 columns and 5 nonzeros
Variable types: 0 continuous, 3 integer (3 binary)
Coefficient statistics:
  Matrix range     [1e+00, 3e+00]
  Objective range  [1e+00, 2e+00]
  Bounds range     [1e+00, 1e+00]
  RHS range        [1e+00, 4e+00]
Presolve removed 2 rows and 3 columns
Presolve time: 0.00s
Presolve: All rows and columns removed

Explored 0 nodes (0 simplex iterations) in 0.03 seconds
Thread count was 1 (of 4 available processors)

Solution count 1: 3 
Pool objective bound 3

Optimal solution found (tolerance 1.00e-04)
Best objective 3.000000000000e+00, best bound 3.000000000000e+00, gap 0.0000%
Optimize a model with 2 rows, 2 columns and 4 nonzeros
Coefficient statistics:
  Matrix range     [2e+00, 1e+01]
  Objective range  [5e+01, 1e+02]
  Bounds range     [0e+00, 0e+00]
  RHS range        [2e+01, 3e+01]
Presolve time: 0.03s
Presolved: 2 rows, 2 columns, 4 nonzeros

Iteration    Objective       Primal Inf.    Dual Inf.      Time
       0    0.0000000e+00   5.000000e+00   0.000000e+00      0s
       2    3.2000000e+02   0.000000e+00   0.000000e+00      0s

Solved in 2 iterations and 0.07 seconds
Optimal objective  3.200000000e+02
Optimize a model with 2 rows, 2 columns and 4 nonzeros
Coefficient statistics:
  Matrix range     [2e+00, 1e+01]
  Objective range  [5e+01, 1e+02]
  Bounds range     [0e+00, 0e+00]
  RHS range        [2e+01, 3e+01]
Presolve time: 0.02s
Presolved: 2 rows, 2 columns, 4 nonzeros

Iteration    Objective       Primal Inf.    Dual Inf.      Time
       0    0.0000000e+00   5.000000e+00   0.000000e+00      0s
       2    3.2000000e+02   0.000000e+00   0.000000e+00      0s

Solved in 2 iterations and 0.04 seconds
Optimal objective  3.200000000e+02
Optimize a model with 2 rows, 2 columns and 4 nonzeros
Coefficient statistics:
  Matrix range     [2e+00, 1e+01]
  Objective range  [5e+01, 1e+02]
  Bounds range     [0e+00, 0e+00]
  RHS range        [2e+01, 3e+01]
Presolve time: 0.02s
Presolved: 2 rows, 2 columns, 4 nonzeros

Iteration    Objective       Primal Inf.    Dual Inf.      Time
       0    0.0000000e+00   5.000000e+00   0.000000e+00      0s
       2    3.2000000e+02   0.000000e+00   0.000000e+00      0s

Solved in 2 iterations and 0.03 seconds
Optimal objective  3.200000000e+02
Optimize a model with 2 rows, 2 columns and 4 nonzeros
Coefficient statistics:
  Matrix range     [2e+00, 1e+01]
  Objective range  [5e+01, 1e+02]
  Bounds range     [0e+00, 0e+00]
  RHS range        [2e+01, 3e+01]
Presolve time: 0.02s
Presolved: 2 rows, 2 columns, 4 nonzeros

Iteration    Objective       Primal Inf.    Dual Inf.      Time
       0    0.0000000e+00   5.000000e+00   0.000000e+00      0s
       2    3.2000000e+02   0.000000e+00   0.000000e+00      0s

Solved in 2 iterations and 0.03 seconds
Optimal objective  3.200000000e+02
Optimize a model with 2 rows, 2 columns and 4 nonzeros
Coefficient statistics:
  Matrix range     [2e+00, 1e+01]
  Objective range  [5e+01, 1e+02]
  Bounds range     [0e+00, 0e+00]
  RHS range        [2e+01, 3e+01]
Presolve time: 0.02s
Presolved: 2 rows, 2 columns, 4 nonzeros

Iteration    Objective       Primal Inf.    Dual Inf.      Time
       0    0.0000000e+00   5.000000e+00   0.000000e+00      0s
       2    3.2000000e+02   0.000000e+00   0.000000e+00      0s

Solved in 2 iterations and 0.03 seconds
Optimal objective  3.200000000e+02

Gurobi 7.0.2 (win64, Python) logging started 10/22/17 16:32:52

Optimize a model with 4 rows, 4 columns and 14 nonzeros
Coefficient statistics:
  Matrix range     [1e+00, 5e+02]
  Objective range  [2e+01, 8e+01]
  Bounds range     [0e+00, 0e+00]
  RHS range        [6e+00, 5e+02]
Presolve time: 0.01s
Presolved: 4 rows, 4 columns, 14 nonzeros

Iteration    Objective       Primal Inf.    Dual Inf.      Time
       0    0.0000000e+00   5.976563e+00   0.000000e+00      0s
       2    9.0000000e+01   0.000000e+00   0.000000e+00      0s

Solved in 2 iterations and 0.01 seconds
Optimal objective  9.000000000e+01

Gurobi 7.0.2 (win64, Python) logging started 10/22/17 17:21:52


Gurobi 7.0.2 (win64, Python) logging started 10/22/17 17:22:09

Optimize a model with 7 rows, 7 columns and 35 nonzeros
Variable types: 0 continuous, 7 integer (0 binary)
Coefficient statistics:
  Matrix range     [1e+00, 1e+00]
  Objective range  [1e+00, 1e+00]
  Bounds range     [0e+00, 0e+00]
  RHS range        [1e+01, 2e+01]
Found heuristic solution: objective 35
Presolve time: 0.00s
Presolved: 7 rows, 7 columns, 35 nonzeros
Variable types: 0 continuous, 7 integer (0 binary)

Root relaxation: objective 2.233333e+01, 5 iterations, 0.00 seconds

    Nodes    |    Current Node    |     Objective Bounds      |     Work
 Expl Unexpl |  Obj  Depth IntInf | Incumbent    BestBd   Gap | It/Node Time

     0     0   22.33333    0    4   35.00000   22.33333  36.2%     -    0s
H    0     0                      23.0000000   22.33333  2.90%     -    0s

Explored 0 nodes (5 simplex iterations) in 0.04 seconds
Thread count was 4 (of 4 available processors)

Solution count 2: 23 35 
Pool objective bound 23

Optimal solution found (tolerance 1.00e-04)
Best objective 2.300000000000e+01, best bound 2.300000000000e+01, gap 0.0000%

Gurobi 7.0.2 (win64, Python) logging started 10/22/17 18:24:44


Gurobi 7.0.2 (win64, Python) logging started 10/22/17 18:25:17

Optimize a model with 7 rows, 5 columns and 15 nonzeros
Coefficient statistics:
  Matrix range     [1e+00, 5e+01]
  Objective range  [1e+01, 4e+01]
  Bounds range     [0e+00, 0e+00]
  RHS range        [1e+00, 4e+01]
Presolve removed 5 rows and 0 columns
Presolve time: 0.03s
Presolved: 2 rows, 5 columns, 10 nonzeros

Iteration    Objective       Primal Inf.    Dual Inf.      Time
       0    7.8106665e+01   8.092299e-01   0.000000e+00      0s
       2    5.7449017e+01   0.000000e+00   0.000000e+00      0s

Solved in 2 iterations and 0.04 seconds
Optimal objective  5.744901720e+01

Gurobi 7.0.2 (win64, Python) logging started 10/29/17 21:24:16

Optimize a model with 23 rows, 12 columns and 80 nonzeros
Coefficient statistics:
  Matrix range     [5e-03, 1e+01]
  Objective range  [1e+00, 4e+01]
  Bounds range     [0e+00, 0e+00]
  RHS range        [1e+03, 1e+04]
Presolve removed 14 rows and 3 columns
Presolve time: 0.06s
Presolved: 9 rows, 9 columns, 33 nonzeros

Iteration    Objective       Primal Inf.    Dual Inf.      Time
       0    6.0529001e+05   1.563750e+03   0.000000e+00      0s
       6    4.0820000e+05   0.000000e+00   0.000000e+00      0s

Solved in 6 iterations and 0.12 seconds
Optimal objective  4.082000000e+05
Optimize a model with 26 rows, 12 columns and 86 nonzeros
Coefficient statistics:
  Matrix range     [5e-03, 1e+01]
  Objective range  [1e+00, 4e+01]
  Bounds range     [0e+00, 0e+00]
  RHS range        [1e+03, 1e+04]
Iteration    Objective       Primal Inf.    Dual Inf.      Time
       0    4.0820000e+05   0.000000e+00   0.000000e+00      0s

Solved in 0 iterations and 0.02 seconds
Optimal objective  4.082000000e+05

Gurobi 7.0.2 (win64, Python) logging started 11/02/17 22:09:49

Optimize a model with 8 rows, 12 columns and 15 nonzeros
Coefficient statistics:
  Matrix range     [1e+00, 1e+00]
  Objective range  [2e+01, 5e+02]
  Bounds range     [0e+00, 0e+00]
  RHS range        [3e+01, 8e+01]
Presolve removed 8 rows and 12 columns
Presolve time: 0.04s
Presolve: All rows and columns removed
Iteration    Objective       Primal Inf.    Dual Inf.      Time
       0    1.5200000e+04   0.000000e+00   0.000000e+00      0s

Solved in 0 iterations and 0.07 seconds
Optimal objective  1.520000000e+04
Optimize a model with 16 rows, 12 columns and 34 nonzeros
Coefficient statistics:
  Matrix range     [1e+00, 1e+00]
  Objective range  [2e+01, 5e+02]
  Bounds range     [0e+00, 0e+00]
  RHS range        [3e+01, 8e+01]
Iteration    Objective       Primal Inf.    Dual Inf.      Time
       0    1.5200000e+04   1.600000e+02   0.000000e+00      0s
       5    7.8750000e+04   0.000000e+00   0.000000e+00      0s

Solved in 5 iterations and 0.01 seconds
Optimal objective  7.875000000e+04
Optimize a model with 8 rows, 12 columns and 19 nonzeros
Coefficient statistics:
  Matrix range     [1e+00, 1e+00]
  Objective range  [2e+01, 5e+02]
  Bounds range     [0e+00, 0e+00]
  RHS range        [3e+01, 8e+01]
Presolve removed 4 rows and 0 columns
Presolve time: 0.02s
Presolved: 4 rows, 12 columns, 15 nonzeros

Iteration    Objective       Primal Inf.    Dual Inf.      Time
       0    0.0000000e+00   1.900000e+02   0.000000e+00      0s
       6    7.8450000e+04   0.000000e+00   0.000000e+00      0s

Solved in 6 iterations and 0.03 seconds
Optimal objective  7.845000000e+04
